************************************************************************
file with basedata            : j60_39.bas
initial value random generator: 815404348
************************************************************************
projects                      :  1
jobs (incl. supersource/sink ):  62
horizon                       :  290
RESOURCES
  - renewable                 :  4   R
  - nonrenewable              :  0   N
  - doubly constrained        :  0   D
************************************************************************
PROJECT INFORMATION:
pronr.  #jobs rel.date duedate tardcost  MPM-Time
    1     60      0       68        5       68
************************************************************************
PRECEDENCE RELATIONS:
jobnr.    #modes  #successors   successors
   1        1          3           2   3   4
   2        1          3           8  16  27
   3        1          1           5
   4        1          3           6   7  10
   5        1          2          32  38
   6        1          1           9
   7        1          3          13  18  42
   8        1          1          20
   9        1          3          11  17  26
  10        1          3          15  33  36
  11        1          3          12  20  33
  12        1          1          30
  13        1          3          14  19  55
  14        1          3          24  25  50
  15        1          2          34  57
  16        1          3          22  29  44
  17        1          1          53
  18        1          2          40  45
  19        1          1          23
  20        1          2          21  55
  21        1          2          28  57
  22        1          2          24  42
  23        1          2          28  35
  24        1          1          39
  25        1          3          34  41  52
  26        1          3          32  38  52
  27        1          1          56
  28        1          2          51  52
  29        1          3          30  31  49
  30        1          1          56
  31        1          3          35  36  56
  32        1          3          45  47  48
  33        1          1          54
  34        1          1          49
  35        1          3          40  41  57
  36        1          2          37  40
  37        1          3          41  45  50
  38        1          1          46
  39        1          1          48
  40        1          1          53
  41        1          2          43  47
  42        1          3          46  47  59
  43        1          1          46
  44        1          3          49  50  58
  45        1          1          55
  46        1          1          48
  47        1          1          61
  48        1          2          51  60
  49        1          1          51
  50        1          1          54
  51        1          1          53
  52        1          1          61
  53        1          1          54
  54        1          1          61
  55        1          2          59  60
  56        1          1          58
  57        1          2          58  60
  58        1          1          59
  59        1          1          62
  60        1          1          62
  61        1          1          62
  62        1          0        
************************************************************************
REQUESTS/DURATIONS:
jobnr. mode duration  R 1  R 2  R 3  R 4
------------------------------------------------------------------------
  1      1     0       0    0    0    0
  2      1     9       8    7    3    0
  3      1     4       0    3    6    0
  4      1     3       2    0    0    1
  5      1     3       4    7    0    6
  6      1     8       0    3    0    9
  7      1     6       0    0    9    0
  8      1     2       0   10    0    0
  9      1     8       4    0    6    0
 10      1     4       0    4    0    6
 11      1     4       2    1    4    0
 12      1     1       0    2    8    2
 13      1     5       0    0    3    0
 14      1     6       0    0    0    5
 15      1     9       0    0    0    8
 16      1     2       5    3    0    0
 17      1     2      10    0    3    0
 18      1     7       8    5    9    0
 19      1     6       0   10    7    0
 20      1     5       7    0   10    7
 21      1    10       6    0    6    0
 22      1     4       9    3    0    0
 23      1     7       3    0    0    0
 24      1     4       0    0    0   10
 25      1     9       2    3    0    0
 26      1     2       0   10    0    0
 27      1     1       0    0    0   10
 28      1     1       0    9    1    0
 29      1     1       2    0    1    8
 30      1     4       3    0    0    0
 31      1     8       0    8    8    4
 32      1    10       2    0    0    0
 33      1     6       0    0    3   10
 34      1     8      10    0    6    5
 35      1     5       6    1    0    0
 36      1     1       7    0    0    9
 37      1     1       0    6   10    0
 38      1     3       0    0    1    0
 39      1     4       8    0    0    0
 40      1    10       7    0    0    7
 41      1     3       0    9    0    0
 42      1     7       1    0    3    2
 43      1     6       0    2    7    2
 44      1    10       9    1    6    0
 45      1     6       5    0    2    0
 46      1     5       0    0    4    0
 47      1     3       0    5    0    9
 48      1     7       0    0    0    6
 49      1     8       2    0    1    2
 50      1     2       0    1   10    6
 51      1     4       0    3    4    7
 52      1     1       0    0    6    5
 53      1     5       4    5    0   10
 54      1     2       0    3    0    0
 55      1     3       0    0    7    6
 56      1     3       0    0    7    6
 57      1     3       0   10    4    0
 58      1     5       5    9    5    9
 59      1     7       2    5    6    0
 60      1     3       8    0    0    0
 61      1     4       0    5    0    5
 62      1     0       0    0    0    0
************************************************************************
RESOURCEAVAILABILITIES:
  R 1  R 2  R 3  R 4
   27   24   30   28
************************************************************************
